(set-info :source |printed by MathSAT|)

1 (9) @37:
(assert true)

9 (14,13,12,11,10) @50:
(assert true)

14 () @50:
(assert true)

13 () @407:
(assert true)

12 () @408:
(assert true)

11 () @409:
(assert true)

10 () @410:
(assert true)

